p wcnf 160 240 241 
1 -92 96 0 
1 120 60 0 
1 -38 150 0 
1 -120 116 0 
1 132 38 0 
1 3 147 0 
1 104 118 0 
1 -22 14 0 
1 -134 116 0 
1 146 120 0 
1 150 36 0 
1 44 74 0 
1 110 87 0 
1 -103 -28 0 
1 148 -63 0 
1 -55 -47 0 
1 125 33 0 
1 -156 -35 0 
1 127 -67 0 
1 113 159 0 
1 -36 -138 0 
1 -82 58 0 
1 57 153 0 
1 -91 -156 0 
1 76 -13 0 
1 135 -25 0 
1 -86 127 0 
1 6 73 0 
1 -133 -41 0 
1 99 -148 0 
1 145 78 0 
1 -152 -8 0 
1 -32 117 0 
1 144 -52 0 
1 -3 -25 0 
1 -22 -49 0 
1 50 -95 0 
1 -87 98 0 
1 -130 -81 0 
1 23 -8 0 
1 -94 31 0 
1 96 86 0 
1 -68 -39 0 
1 -55 -147 0 
1 -128 -75 0 
1 -53 -78 0 
1 -70 65 0 
1 158 -123 0 
1 49 -100 0 
1 -152 -47 0 
1 107 -58 0 
1 119 26 0 
1 2 -150 0 
1 -114 125 0 
1 -154 36 0 
1 -75 146 0 
1 54 138 0 
1 127 -147 0 
1 -99 -144 0 
1 -139 -12 0 
1 -59 140 0 
1 18 121 0 
1 -43 62 0 
1 -142 -23 0 
1 125 138 0 
1 4 133 0 
1 -36 -47 0 
1 -88 -64 0 
1 -20 105 0 
1 109 -68 0 
1 -112 -45 0 
1 120 83 0 
1 23 -102 0 
1 24 76 0 
1 -134 140 0 
1 -138 110 0 
1 143 99 0 
1 -17 -38 0 
1 -13 52 0 
1 107 -150 0 
1 146 -87 0 
1 -3 -120 0 
1 -101 -72 0 
1 82 130 0 
1 -127 91 0 
1 45 -23 0 
1 -136 66 0 
1 -36 71 0 
1 32 16 0 
1 -112 9 0 
1 2 95 0 
1 -69 145 0 
1 146 -100 0 
1 -8 -19 0 
1 70 35 0 
1 -125 10 0 
1 69 126 0 
1 -1 25 0 
1 40 -104 0 
1 -64 111 0 
1 -16 56 0 
1 58 -158 0 
1 63 124 0 
1 75 -65 0 
1 23 16 0 
1 23 32 0 
1 33 31 0 
1 -147 87 0 
1 -91 -49 0 
1 -142 -59 0 
1 -97 45 0 
1 23 144 0 
1 -21 20 0 
1 124 57 0 
1 -83 -84 0 
1 104 20 0 
1 -128 -62 0 
1 95 -97 0 
1 -107 57 0 
1 126 54 0 
1 -57 -32 0 
1 -72 8 0 
1 -144 -2 0 
1 155 -118 0 
1 -100 -105 0 
1 -154 -63 0 
1 59 153 0 
1 75 -37 0 
1 148 -144 0 
1 -22 -2 0 
1 155 99 0 
1 85 70 0 
1 143 -110 0 
1 -35 -110 0 
1 -154 -42 0 
1 -15 136 0 
1 -87 -157 0 
1 106 -90 0 
1 -156 68 0 
1 47 74 0 
1 17 -149 0 
1 152 77 0 
1 16 59 0 
1 158 -155 0 
1 -13 2 0 
1 94 -70 0 
1 -55 76 0 
1 21 156 0 
1 -59 137 0 
1 109 -85 0 
1 29 -118 0 
1 -145 13 0 
1 -160 -11 0 
1 -26 -12 0 
1 -23 -32 0 
1 -143 77 0 
1 66 -71 0 
1 -159 -87 0 
1 25 -15 0 
1 -29 10 0 
1 6 -36 0 
1 71 149 0 
1 127 -26 0 
1 -30 159 0 
1 154 -125 0 
1 120 -64 0 
1 93 152 0 
1 -60 89 0 
1 -77 -23 0 
1 -137 -91 0 
1 -136 152 0 
1 138 67 0 
1 23 -135 0 
1 105 -100 0 
1 36 -99 0 
1 154 115 0 
1 139 154 0 
1 93 150 0 
1 109 111 0 
1 79 -99 0 
1 8 -17 0 
1 147 118 0 
1 94 135 0 
1 76 85 0 
1 73 47 0 
1 -47 -57 0 
1 -45 -15 0 
1 81 25 0 
1 -3 -159 0 
1 -66 102 0 
1 68 -143 0 
1 -86 136 0 
1 -119 -88 0 
1 75 -88 0 
1 4 -137 0 
1 114 -128 0 
1 78 135 0 
1 -28 70 0 
1 121 132 0 
1 -117 91 0 
1 -109 -114 0 
1 37 106 0 
1 -69 65 0 
1 -59 -60 0 
1 -109 -79 0 
1 22 -118 0 
1 45 46 0 
1 -51 112 0 
1 -158 116 0 
1 -33 -29 0 
1 -82 -1 0 
1 -23 116 0 
1 118 -133 0 
1 -84 -143 0 
1 10 -99 0 
1 -95 111 0 
1 53 120 0 
1 101 51 0 
1 119 -101 0 
1 -28 -18 0 
1 22 -32 0 
1 93 117 0 
1 -91 133 0 
1 92 -90 0 
1 -116 -100 0 
1 -31 -53 0 
1 -142 3 0 
1 -8 -35 0 
1 117 56 0 
1 66 44 0 
1 35 -55 0 
1 46 -117 0 
1 124 -38 0 
1 62 -43 0 
1 -103 -5 0 
1 -158 -86 0 
1 113 -28 0 
1 127 60 0 
1 -88 131 0 
1 20 -126 0 
